134
10000
1189
1927
4984
1108
2244
2096
2937
4768
1829
1116
3117
1841
3223
4939
2063
1951
12
1021
3571
3859
1696
2
957
1982
1705
2328
4297
378
3264
3574
1796
144
4625
3946
127
1904
4845
2338
2495
1269
4495
1956
738
830
2116
1511
3797
2020
1554
1475
1734
390
1090
1845
2277
4599
2250
3253
1956
4397
1238
3465
2894
1001
4281
1298
1445
2139
4466
2118
2232
515
3229
2
691
2100
4274
1171
700
3342
4086
911
4850
309
1659
379
2525
2113
453
2555
3210
1511
316
4544
1155
4822
1417
1646
796
4304
2658
710
3198
12
3835
395
2106
2874
2166
3997
632
92
3145
2106
3501
4316
4856
4479
1726
151
697
632
3554
10
4197
588
4500
4450
44
2671
1224
3517
770
2279
